88 10 63 90 32 70 
95 92 98 91 44 38 86 16 61 85 93 
33 76 79 29 24 68 80 12 
53 21 72 56 75 74 73 
40 22 41 58 
51 65 9 78 34 3 77 28 
2 57 42 15 43 14 100 37 59 
94 96 99 97 87 13 
18 83 45 84 6 
26 39 23 67 55 4 25 54 
82 47 36 46 8 17 5 60 89 
31 62 11 64 49 19 48 7 52 
27 69 1 30 20 66 71 35 81 50 
